(set-info :smt-lib-version 2.6)
(set-logic QF_S)
(set-info :source |
Generated by: Hung-En Wang, Tzung-Lin Tsai, Chun-Han Lin, Fang Yu, and Jie-Hong R. Jiang
Generated on: 2019-02-28
Generator: Stranger
Application: Security analysis of string manipulating web applications
Target solver: CVC4, Norn, Z3-str2
Publication:
Hung-En Wang, Tzung-Lin Tsai, Chun-Han Lin, Fang Yu, Jie-Hong R. Jiang:
String Analysis via Automata Manipulation with Logic Circuit Representation. CAV (1) 2016: 241-260.
|)
(set-info :license "https://creativecommons.org/licenses/by/4.0/")
(set-info :category "industrial")
(set-info :status unknown)

(declare-fun sigmaStar_0 () String)
(declare-fun sigmaStar_1 () String)
(declare-fun sigmaStar_2 () String)
(declare-fun sigmaStar_3 () String)
(declare-fun sigmaStar_4 () String)
(declare-fun sigmaStar_5 () String)
(declare-fun sigmaStar_6 () String)
(declare-fun sigmaStar_7 () String)
(declare-fun literal_12 () String)
(declare-fun x_11 () String)
(declare-fun epsilon () String)
(declare-fun literal_9 () String)
(declare-fun x_13 () String)
(declare-fun literal_14 () String)
(declare-fun x_15 () String)
(declare-fun x_19 () String)
(declare-fun literal_17 () String)
(declare-fun x_22 () String)
(declare-fun literal_24 () String)
(declare-fun x_28 () String)
(declare-fun x_34 () String)
(declare-fun literal_30 () String)
(declare-fun x_37 () String)
(declare-fun literal_36 () String)
(declare-fun x_35 () String)
(declare-fun x_38 () String)
(declare-fun literal_42 () String)
(declare-fun x_41 () String)
(declare-fun x_46 () String)
(declare-fun literal_43 () String)
(declare-fun x_47 () String)
(declare-fun literal_45 () String)
(declare-fun x_54 () String)
(declare-fun literal_52 () String)
(declare-fun x_51 () String)
(declare-fun x_55 () String)
(declare-fun literal_53 () String)
(declare-fun x_56 () String)
(declare-fun literal_48 () String)
(declare-fun x_57 () String)
(declare-fun literal_58 () String)
(declare-fun x_62 () String)
(declare-fun literal_60 () String)
(declare-fun x_64 () String)
(declare-fun x_65 () String)
(declare-fun x_73 () String)
(declare-fun literal_72 () String)
(declare-fun x_78 () String)
(declare-fun literal_77 () String)
(declare-fun x_76 () String)
(declare-fun literal_74 () String)
(declare-fun x_80 () String)
(declare-fun literal_79 () String)
(declare-fun x_81 () String)
(declare-fun x_82 () String)
(declare-fun literal_25 () String)
(declare-fun x_83 () String)
(declare-fun literal_84 () String)
(declare-fun x_85 () String)
(declare-fun literal_86 () String)
(declare-fun x_87 () String)
(assert (= literal_12 "\u{66}\u{72}\u{6f}\u{6d}\u{3d}\u{64}\u{61}\u{79}\u{26}\u{61}\u{6d}\u{70}\u{3b}\u{63}\u{61}\u{6c}\u{5f}\u{64}\u{3d}"))
(assert (= epsilon ""))
(assert (= literal_9 "\u{63}\u{61}\u{6c}\u{5f}\u{64}"))
(assert (or (= x_11 epsilon) (= x_11 literal_9)))
(assert (= x_13 (str.++ literal_12 x_11)))
(assert (= literal_14 "\u{26}\u{61}\u{6d}\u{70}\u{3b}\u{63}\u{61}\u{6c}\u{5f}\u{6d}\u{3d}"))
(assert (= x_15 (str.++ x_13 literal_14)))
(assert (= literal_17 "\u{63}\u{61}\u{6c}\u{5f}\u{6d}"))
(assert (or (= x_19 epsilon) (= x_19 literal_17)))
(assert (= x_22 (str.++ x_15 x_19)))
(assert (= literal_24 "\u{26}\u{61}\u{6d}\u{70}\u{3b}\u{63}\u{61}\u{6c}\u{5f}\u{79}\u{3d}"))
(assert (= x_28 (str.++ x_22 literal_24)))
(assert (= literal_30 "\u{63}\u{61}\u{6c}\u{5f}\u{79}"))
(assert (or (= x_34 epsilon) (= x_34 literal_30)))
(assert (= x_37 (str.++ x_28 x_34)))
(assert (= literal_36 "\u{3c}\u{69}\u{6e}\u{70}\u{75}\u{74}\u{20}\u{74}\u{79}\u{70}\u{65}\u{3d}\u{22}\u{68}\u{69}\u{64}\u{64}\u{65}\u{6e}\u{22}\u{20}\u{6e}\u{61}\u{6d}\u{65}\u{3d}\u{22}\u{63}\u{61}\u{6c}\u{5f}\u{64}\u{22}\u{20}\u{76}\u{61}\u{6c}\u{75}\u{65}\u{3d}\u{22}"))
(assert (or (= x_35 epsilon) (= x_35 literal_9)))
(assert (= x_38 (str.++ literal_36 x_35)))
(assert (= literal_42 "\u{3c}\u{69}\u{6e}\u{70}\u{75}\u{74}\u{20}\u{74}\u{79}\u{70}\u{65}\u{3d}\u{22}\u{68}\u{69}\u{64}\u{64}\u{65}\u{6e}\u{22}\u{20}\u{6e}\u{61}\u{6d}\u{65}\u{3d}\u{22}\u{63}\u{61}\u{6c}\u{5f}\u{6d}\u{22}\u{20}\u{76}\u{61}\u{6c}\u{75}\u{65}\u{3d}\u{22}"))
(assert (or (= x_41 epsilon) (= x_41 literal_17)))
(assert (= x_46 (str.++ literal_42 x_41)))
(assert (= literal_43 "\u{22}\u{20}\u{2f}\u{3e}"))
(assert (= x_47 (str.++ x_38 literal_43)))
(assert (= literal_45 "\u{2f}\u{63}\u{61}\u{6c}\u{65}\u{6e}\u{64}\u{61}\u{72}\u{2f}\u{73}\u{65}\u{74}\u{2e}\u{70}\u{68}\u{70}\u{3f}\u{76}\u{61}\u{72}\u{3d}\u{73}\u{65}\u{74}\u{63}\u{6f}\u{75}\u{72}\u{73}\u{65}\u{26}\u{61}\u{6d}\u{70}\u{3b}"))
(assert (= x_54 (str.++ literal_45 x_37)))
(assert (= literal_52 "\u{3c}\u{69}\u{6e}\u{70}\u{75}\u{74}\u{20}\u{74}\u{79}\u{70}\u{65}\u{3d}\u{22}\u{68}\u{69}\u{64}\u{64}\u{65}\u{6e}\u{22}\u{20}\u{6e}\u{61}\u{6d}\u{65}\u{3d}\u{22}\u{63}\u{61}\u{6c}\u{5f}\u{79}\u{22}\u{20}\u{76}\u{61}\u{6c}\u{75}\u{65}\u{3d}\u{22}"))
(assert (or (= x_51 epsilon) (= x_51 literal_30)))
(assert (= x_55 (str.++ literal_52 x_51)))
(assert (= literal_53 "\u{22}\u{20}\u{2f}\u{3e}"))
(assert (= x_56 (str.++ x_46 literal_53)))
(assert (= literal_48 "\u{3c}\u{64}\u{69}\u{76}\u{20}\u{63}\u{6c}\u{61}\u{73}\u{73}\u{3d}\u{22}\u{62}\u{75}\u{74}\u{74}\u{6f}\u{6e}\u{73}\u{22}\u{3e}\u{3c}\u{66}\u{6f}\u{72}\u{6d}\u{20}\u{61}\u{63}\u{74}\u{69}\u{6f}\u{6e}\u{3d}\u{22}\u{2f}\u{63}\u{61}\u{6c}\u{65}\u{6e}\u{64}\u{61}\u{72}\u{2f}\u{65}\u{76}\u{65}\u{6e}\u{74}\u{2e}\u{70}\u{68}\u{70}\u{22}\u{20}\u{6d}\u{65}\u{74}\u{68}\u{6f}\u{64}\u{3d}\u{22}\u{67}\u{65}\u{74}\u{22}\u{3e}\u{3c}\u{69}\u{6e}\u{70}\u{75}\u{74}\u{20}\u{74}\u{79}\u{70}\u{65}\u{3d}\u{22}\u{68}\u{69}\u{64}\u{64}\u{65}\u{6e}\u{22}\u{20}\u{6e}\u{61}\u{6d}\u{65}\u{3d}\u{22}\u{61}\u{63}\u{74}\u{69}\u{6f}\u{6e}\u{22}\u{20}\u{76}\u{61}\u{6c}\u{75}\u{65}\u{3d}\u{22}\u{6e}\u{65}\u{77}\u{22}\u{20}\u{2f}\u{3e}"))
(assert (= x_57 (str.++ literal_48 x_47)))
(assert (= literal_58 "\u{26}\u{61}\u{6d}\u{70}\u{3b}\u{69}\u{64}\u{3d}"))
(assert (= x_62 (str.++ x_54 literal_58)))
(assert (= literal_60 "\u{22}\u{20}\u{2f}\u{3e}"))
(assert (= x_64 (str.++ x_55 literal_60)))
(assert (= x_65 (str.++ x_57 x_56)))
(assert (= x_73 (str.++ x_65 x_64)))
(assert (= literal_72 "\u{3c}\u{69}\u{6e}\u{70}\u{75}\u{74}\u{20}\u{74}\u{79}\u{70}\u{65}\u{3d}\u{22}\u{73}\u{75}\u{62}\u{6d}\u{69}\u{74}\u{22}\u{20}\u{76}\u{61}\u{6c}\u{75}\u{65}\u{3d}\u{22}\u{6e}\u{65}\u{77}\u{65}\u{76}\u{65}\u{6e}\u{74}\u{22}\u{20}\u{2f}\u{3e}"))
(assert (= x_78 (str.++ x_73 literal_72)))
(assert (= literal_77 "\u{64}\u{61}\u{79}\u{76}\u{69}\u{65}\u{77}\u{3a}\u{20}"))
(assert (= literal_74 ""))
(assert (or (= x_76 literal_74) (= x_76 x_62)))
(assert (= x_80 (str.++ literal_77 x_76)))
(assert (= literal_79 "\u{3c}\u{2f}\u{66}\u{6f}\u{72}\u{6d}\u{3e}\u{3c}\u{2f}\u{64}\u{69}\u{76}\u{3e}"))
(assert (= x_81 (str.++ x_78 literal_79)))
(assert (= literal_25 ""))
(assert (or (= x_82 x_81) (= x_82 literal_25)))
(assert (= x_83 (str.++ x_82 x_80)))
(assert (= literal_84 "\u{3c}\u{64}\u{69}\u{76}\u{20}\u{63}\u{6c}\u{61}\u{73}\u{73}\u{3d}\u{22}\u{68}\u{65}\u{61}\u{64}\u{65}\u{72}\u{22}\u{3e}"))
(assert (= x_85 (str.++ literal_84 x_83)))
(assert (= literal_86 "\u{3c}\u{2f}\u{64}\u{69}\u{76}\u{3e}"))
(assert (= x_87 (str.++ x_85 literal_86)))
(assert (str.in_re x_87 (re.++ (re.* re.allchar) (re.++ (str.to_re "\u{5c}\u{3c}\u{53}\u{43}\u{52}\u{49}\u{50}\u{54}") (re.* re.allchar)))))
(check-sat)
(exit)
